# avogadro generated ORCA input file
# Basic Mode
# apath_HMF02_O-GeomOpt
! B3LYP RIJCOSX D3 ma-def2-TZVP def2/J Opt TIGHTSCF Grid3 FinalGrid5
! Normalprint
%output
Print[ P_Basis ] 2
Print[ P_MOs ] 1
End 

* xyz 0 1
   C       -1.16771        1.18176       -0.07570
   C       -0.76408       -0.13736       -0.06444
   C        0.61322       -0.12066       -0.07193
   C        0.97965        1.21975       -0.08750
   C       -2.57324        1.68712       -0.07334
   H       -3.10653        1.31523       -0.97296
   H       -2.57767        2.79714       -0.08460
   H       -3.09687        1.33364        0.83928
   C       -1.62336       -1.36221       -0.04742
   H       -2.70054       -1.09624       -0.04439
   H       -1.40089       -1.95821        0.86211
   H       -1.41053       -1.97660       -0.94696
   H        1.22248       -1.00247       -0.06622
   C        3.64563        1.15199       -0.10080
   C        3.94352       -0.20512       -0.08840
   C        5.31888       -0.29123       -0.09470
   H        3.28910       -1.05383       -0.07623
   C        5.78894        1.00598       -0.11050
   O        4.77281        1.83652       -0.11373
   C        7.21617        1.45077       -0.12251
   H        7.90918        0.58425       -0.11722
   H        7.41486        2.07301        0.77451
   H        7.40543        2.05441       -1.03417
   C        6.12728       -1.54982       -0.08597
   H        5.46336       -2.43991       -0.07335
   H        6.77292       -1.57230        0.81661
   H        6.76347       -1.59094       -0.99458
   O       -0.11141        1.96069       -0.08923
   C        2.32937        1.84533       -0.10101
   O        2.36035        3.06665       -0.11369
*
