# avogadro generated ORCA input file
# Basic Mode
# apath_HMF03-GeomOpt
! B3LYP RIJCOSX D3 ma-def2-TZVP def2/J Opt TIGHTSCF Grid3 FinalGrid5
! Normalprint
%output
Print[ P_Basis ] 2
Print[ P_MOs ] 1
End 

* xyz 0 1
   C       -1.64066        1.33418       -0.04810
   C       -1.63461       -0.04921       -0.05665
   C       -0.31094       -0.42806       -0.06499
   C        0.41759        0.75238       -0.06101
   C       -2.84262        2.22074       -0.03717
   H       -3.45692        2.03002       -0.94175
   H       -2.52906        3.28560       -0.03203
   H       -3.44868        2.01885        0.87054
   C       -2.80930       -0.97551       -0.05700
   H       -3.76443       -0.41097       -0.04918
   H       -2.77063       -1.62326        0.84348
   H       -2.77886       -1.61212       -0.96571
   H        0.06804       -1.44152       -0.07294
   C        4.15964       -0.22301       -0.08367
   C        5.09549       -1.23876       -0.09408
   C        6.32269       -0.61241       -0.09550
   H        4.90350       -2.30394       -0.09987
   C        6.06316        0.74781       -0.08589
   O        4.76397        0.94716       -0.07900
   C        7.06497        1.85727       -0.08331
   H        8.10249        1.46404       -0.09025
   H        6.92373        2.47794        0.82562
   H        6.91590        2.48924       -0.98314
   C        7.65911       -1.28336       -0.10547
   H        7.54044       -2.38749       -0.11184
   H        8.23066       -0.98978        0.79957
   H        8.22282       -0.97849       -1.01170
   O       -0.40428        1.78026       -0.05095
   C        1.91371        0.91138       -0.06677
   C        2.67262       -0.42327       -0.07841
   H        2.20248        1.48720        0.83905
   H        2.19440        1.49836       -0.96795
   H        2.40077       -1.01122        0.82493
   H        2.39278       -0.99997       -0.98655
*
