 $CONTRL COORD=CART UNITS=ANGS $END

 $DATA

C1
C      6.0     -1.4347721171    1.9057669698   -0.0000160315 
O      8.0     -1.4839369673    3.0954744306    0.0000090273 
O      8.0     -0.2657638305    1.2291876635   -0.0000045750 
H      1.0     -2.3236429361    1.2505073856    0.0000050560 
H      1.0     -0.4311341489    0.2762935504    0.0000065232 
 $END


