# avogadro generated ORCA input file
# Basic Mode
# apath_HMF01-GeomOpt
! B3LYP RIJCOSX D3 ma-def2-TZVP def2/J Opt TIGHTSCF Grid3 FinalGrid5
! Normalprint
%output
Print[ P_Basis ] 2
Print[ P_MOs ] 1
End 

* xyz 0 1
   C       -0.43554        0.67350       -0.02753
   C       -0.57316       -0.70425       -0.02432
   C        0.70444       -1.21859       -0.01987
   C        1.54616       -0.12110       -0.02062
   C       -1.53918        1.67984       -0.03285
   H       -2.16417        1.54544       -0.94021
   H       -1.11697        2.70649       -0.03447
   H       -2.16863        1.55012        0.87211
   C       -1.83762       -1.50360       -0.02534
   H       -2.72892       -0.84283       -0.02922
   H       -1.87215       -2.14355        0.88086
   H       -1.86774       -2.14823       -0.92838
   H        0.98422       -2.26396       -0.01650
   C        3.01372       -0.14922       -0.01694
   C        3.81265       -1.27799       -0.01225
   C        5.10934       -0.81216       -0.01017
   H        3.49206       -2.31159       -0.01056
   C        5.02459        0.57014       -0.01368
   O        3.76109        0.93324       -0.01769
   C        6.15949        1.54316       -0.01318
   H        7.13856        1.02109       -0.00949
   H        6.09303        2.18501        0.88955
   H        6.09754        2.18071       -0.91926
   C        6.34987       -1.64727       -0.00510
   H        6.09214       -2.72745       -0.00317
   H        6.94864       -1.42033        0.90151
   H        6.95312       -1.42465       -0.90982
   O        0.84076        0.98920       -0.02520
*
