# avogadro generated ORCA input file
# Basic Mode
# apath_HMF02_01 second attempt.
! B3LYP RIJCOSX D3 ma-def2-TZVP def2/J Opt TIGHTSCF Grid3 FinalGrid5
! Normalprint
%output
Print[ P_Basis ] 2
Print[ P_MOs ] 1
End

* xyz 0 1
   C       -3.54222        1.40577        0.00000
   C       -3.29574        0.04629        0.00000
   C       -1.90438       -0.09870        0.00000
   C       -1.40410        1.20354        0.00000
   C       -0.04153        1.78671        0.00000
   C        1.21807        1.31880        0.00000
   C        1.75118        0.03032        0.00000
   C        3.14063        0.20696        0.00000
   C        3.35067        1.57894        0.00000
   O       -2.40906        2.04892        0.00000
   O        2.20199        2.19182        0.00000
   C       -4.86098        2.10908        0.00000
   H       -4.69273        3.20816        0.00000
   H       -5.43729        1.83932        0.90848
   H       -5.43729        1.83932       -0.90848
   C       -4.34125       -1.03239        0.00000
   H       -5.36312       -0.59159        0.00000
   H       -4.24285       -1.66272        0.90697
   H       -4.24285       -1.66272       -0.90697
   C        4.50731        2.24955        0.00000
   C        4.19352       -0.86738        0.00000
   H        5.21815       -0.43985        0.00000
   H        4.09464       -1.49808       -0.90652
   H        4.09464       -1.49808        0.90652
   H       -1.35177       -1.02930        0.00000
   H       -0.09306        2.87130        0.00000
   H        1.22153       -0.91421        0.00000
   H        5.47198        1.76071        0.00000
   H        4.48834        3.33657        0.00000
*
