# avogadro generated ORCA input file
# Basic Mode
# FDCA-GeomOpt
! B3LYP RIJCOSX D3 ma-def2-TZVP def2/J Opt TIGHTSCF Grid3 FinalGrid5
! Normalprint
%output
Print[ P_Basis ] 2
Print[ P_MOs ] 1
End

* xyz 0 1
   C       -1.69426        1.08039       -0.04656
   C       -1.26381       -0.23333       -0.00453
   C        0.15092       -0.20237       -0.02548
   C        0.52051        1.12831       -0.07931
   C       -3.00587        1.67109       -0.04978
   C        1.82546        1.73472       -0.11973
   O       -0.60493        1.90880       -0.09211
   O        1.76696        3.08375       -0.16805
   H        2.70477        3.35834       -0.19119
   O        2.90769        1.16494       -0.11415
   O       -3.31260        2.85351       -0.08886
   O       -3.97480        0.72644       -0.00146
   H       -4.79544        1.26125       -0.00951
   H       -1.90411       -1.10444        0.03631
   H        0.83146       -1.04335       -0.00425
*
