# avogadro generated ORCA input file
# Basic Mode
# apath_HMF04-GeomOpt
! B3LYP RIJCOSX D3 ma-def2-TZVP def2/J Opt TIGHTSCF Grid3 FinalGrid5
! Normalprint
%output
Print[ P_Basis ] 2
Print[ P_MOs ] 1
End

* xyz 0 1
   C       -6.82268       -0.20292        0.80840
   C       -6.38216       -1.50142        0.91755
   C       -5.02601       -1.44375        1.14556
   C       -4.70578       -0.09202        1.16377
   C       -3.40095        0.58962        1.36641
   C       -2.17930        0.06712        1.58760
   C       -1.78456       -1.26262        1.69066
   C       -0.42483       -1.23559        1.92033
   C       -0.06469        0.09788        1.94507
   C        1.15935        0.59229        2.13902
   H       -3.45314        1.67447        1.32818
   H        2.01047       -0.06171        2.30102
   H        1.31936        1.66575        2.13692
   H       -2.36283       -2.16238        1.61720
   O       -5.80254        0.60945        0.95942
   O       -1.12583        0.84444        1.74497
   H       -7.84020        0.11773        0.62763
   H       -4.40097       -2.30645        1.27428
   C       -7.20980       -2.73979        0.81040
   H       -8.27382       -2.48253        0.62346
   H       -7.13970       -3.31707        1.75586
   H       -6.83772       -3.36452       -0.02824
   C        0.46520       -2.42550        2.10356
   H       -0.12060       -3.36603        2.02991
   H        0.94665       -2.38089        3.10267
   H        1.24912       -2.42950        1.31777
*
