# avogadro generated ORCA input file
# Basic Mode
# bpath_HMF01-GeomOpt
! B3LYP RIJCOSX D3 ma-def2-TZVP def2/J Opt TIGHTSCF Grid3 FinalGrid5
! Normalprint
%output
Print[ P_Basis ] 2
Print[ P_MOs ] 1
End 

* xyz 0 1
   C        0.26238        0.67448       -0.69281
   C        1.33629        1.58547       -0.69452
   C        0.23816       -0.81526       -0.84463
   H        1.20981       -1.27128       -1.05188
   H       -0.40977       -1.06875       -1.70935
   H       -0.19566       -1.27214        0.06884
   C        3.48956        0.14037       -0.65023
   C        4.82901        0.41630       -0.81293
   O        5.00316        1.69432       -1.03020
   C        5.94436       -0.57327       -0.74660
   H        5.55361       -1.59375       -0.54821
   H        6.64202       -0.28930        0.06832
   H        6.49173       -0.57790       -1.71190
   O       -0.87048        1.32989       -0.56962
   C        3.83257        2.29028       -1.01365
   C        2.81759        1.34841       -0.78749
   C       -0.62042        2.61121       -0.50247
   C        0.73412        2.83198       -0.58230
   H        1.18940        3.80494       -0.54448
   C       -1.67535        3.65732       -0.36069
   H       -2.36887        3.60197       -1.22522
   H       -1.22207        4.67061       -0.32559
   H       -2.24398        3.48371        0.57632
   H        3.10874       -0.83974       -0.43791
   C        3.71273        3.76400       -1.22941
   H        4.71659        4.19720       -1.42259
   H        3.31236        4.25208       -0.31861
   H        3.06542        3.96856       -2.10753
*

